p cnf 1639
-23 -513
-24 -516
-25 -519
-26 -522
-27 -525
-28 -528
-29 -531
-30 -534
-31 -537
-32 -540
-33 -543
-34 -546
-35 -549
-36 -552
-37 -555
-38 -558
-39 -561
-40 -564
-41 -567
-42 -570
-43 -573
-44 -576
-45 577
-46 578
-47 579
-48 580
-49 581
-50 582
-51 583
-52 584
-53 585
-54 586
-55 587
-56 588
-57 589
-58 590
-59 -24
-59 -25
24 25 59
-60 -26
-60 -27
26 27 60
-61 -28
-61 -29
28 29 61
-62 -30
-62 -31
30 31 62
-63 -32
-63 -33
32 33 63
-64 -34
-64 -35
34 35 64
-65 -36
-65 -37
36 37 65
-66 -38
-66 -39
38 39 66
-67 -40
-67 -41
40 41 67
-68 -42
-68 -43
42 43 68
-69 -44
-69 -45
44 45 69
-70 -46
-70 -47
46 47 70
-71 -48
-71 -49
48 49 71
-72 -50
-72 -51
50 51 72
-73 -52
-73 -53
52 53 73
-74 -54
-74 -55
54 55 74
-75 -56
-75 -57
56 57 75
-76 59
-76 60
-59 -60 76
-77 61
-77 62
-61 -62 77
-78 63
-78 64
-63 -64 78
-79 65
-79 66
-65 -66 79
-80 67
-80 68
-67 -68 80
-81 69
-81 70
-69 -70 81
-82 71
-82 72
-71 -72 82
-83 73
-83 74
-73 -74 83
-84 -58
-84 75
58 -75 84
-85 76
-85 77
-76 -77 85
-86 78
-86 79
-78 -79 86
-87 80
-87 81
-80 -81 87
-88 82
-88 83
-82 -83 88
-89 85
-89 86
-85 -86 89
-90 87
-90 88
-87 -88 90
-91 89
-91 90
-89 -90 91
-92 84
-92 91
-84 -91 92
-93 -23
-93 24
23 -24 93
-94 23
-94 -24
-23 24 94
-95 -93
-95 -94
93 94 95
-96 23
-96 24
-23 -24 96
-97 -23
-97 -95
23 95 97
-98 23
-98 95
-23 -95 98
-99 -97
-99 -98
97 98 99
-100 23
-100 -95
-23 95 100
-101 -96
-101 -100
96 100 101
-102 -24
-102 25
24 -25 102
-103 24
-103 -25
-24 25 103
-104 -102
-104 -103
102 103 104
-105 24
-105 25
-24 -25 105
-106 101
-106 -104
-101 104 106
-107 -101
-107 104
101 -104 107
-108 -106
-108 -107
106 107 108
-109 -101
-109 -104
101 104 109
-110 -105
-110 -109
105 109 110
-111 -25
-111 26
25 -26 111
-112 25
-112 -26
-25 26 112
-113 -111
-113 -112
111 112 113
-114 25
-114 26
-25 -26 114
-115 110
-115 -113
-110 113 115
-116 -110
-116 113
110 -113 116
-117 -115
-117 -116
115 116 117
-118 -110
-118 -113
110 113 118
-119 -114
-119 -118
114 118 119
-120 -26
-120 27
26 -27 120
-121 26
-121 -27
-26 27 121
-122 -120
-122 -121
120 121 122
-123 26
-123 27
-26 -27 123
-124 119
-124 -122
-119 122 124
-125 -119
-125 122
119 -122 125
-126 -124
-126 -125
124 125 126
-127 -119
-127 -122
119 122 127
-128 -123
-128 -127
123 127 128
-129 -27
-129 28
27 -28 129
-130 27
-130 -28
-27 28 130
-131 -129
-131 -130
129 130 131
-132 27
-132 28
-27 -28 132
-133 128
-133 -131
-128 131 133
-134 -128
-134 131
128 -131 134
-135 -133
-135 -134
133 134 135
-136 -128
-136 -131
128 131 136
-137 -132
-137 -136
132 136 137
-138 -28
-138 29
28 -29 138
-139 28
-139 -29
-28 29 139
-140 -138
-140 -139
138 139 140
-141 28
-141 29
-28 -29 141
-142 137
-142 -140
-137 140 142
-143 -137
-143 140
137 -140 143
-144 -142
-144 -143
142 143 144
-145 -137
-145 -140
137 140 145
-146 -141
-146 -145
141 145 146
-147 -29
-147 30
29 -30 147
-148 29
-148 -30
-29 30 148
-149 -147
-149 -148
147 148 149
-150 29
-150 30
-29 -30 150
-151 146
-151 -149
-146 149 151
-152 -146
-152 149
146 -149 152
-153 -151
-153 -152
151 152 153
-154 -146
-154 -149
146 149 154
-155 -150
-155 -154
150 154 155
-156 -30
-156 31
30 -31 156
-157 30
-157 -31
-30 31 157
-158 -156
-158 -157
156 157 158
-159 30
-159 31
-30 -31 159
-160 155
-160 -158
-155 158 160
-161 -155
-161 158
155 -158 161
-162 -160
-162 -161
160 161 162
-163 -155
-163 -158
155 158 163
-164 -159
-164 -163
159 163 164
-165 -31
-165 32
31 -32 165
-166 31
-166 -32
-31 32 166
-167 -165
-167 -166
165 166 167
-168 31
-168 32
-31 -32 168
-169 164
-169 -167
-164 167 169
-170 -164
-170 167
164 -167 170
-171 -169
-171 -170
169 170 171
-172 -164
-172 -167
164 167 172
-173 -168
-173 -172
168 172 173
-174 -32
-174 33
32 -33 174
-175 32
-175 -33
-32 33 175
-176 -174
-176 -175
174 175 176
-177 32
-177 33
-32 -33 177
-178 173
-178 -176
-173 176 178
-179 -173
-179 176
173 -176 179
-180 -178
-180 -179
178 179 180
-181 -173
-181 -176
173 176 181
-182 -177
-182 -181
177 181 182
-183 -33
-183 34
33 -34 183
-184 33
-184 -34
-33 34 184
-185 -183
-185 -184
183 184 185
-186 33
-186 34
-33 -34 186
-187 182
-187 -185
-182 185 187
-188 -182
-188 185
182 -185 188
-189 -187
-189 -188
187 188 189
-190 -182
-190 -185
182 185 190
-191 -186
-191 -190
186 190 191
-192 -34
-192 35
34 -35 192
-193 34
-193 -35
-34 35 193
-194 -192
-194 -193
192 193 194
-195 34
-195 35
-34 -35 195
-196 191
-196 -194
-191 194 196
-197 -191
-197 194
191 -194 197
-198 -196
-198 -197
196 197 198
-199 -191
-199 -194
191 194 199
-200 -195
-200 -199
195 199 200
-201 -35
-201 36
35 -36 201
-202 35
-202 -36
-35 36 202
-203 -201
-203 -202
201 202 203
-204 35
-204 36
-35 -36 204
-205 200
-205 -203
-200 203 205
-206 -200
-206 203
200 -203 206
-207 -205
-207 -206
205 206 207
-208 -200
-208 -203
200 203 208
-209 -204
-209 -208
204 208 209
-210 -36
-210 37
36 -37 210
-211 36
-211 -37
-36 37 211
-212 -210
-212 -211
210 211 212
-213 36
-213 37
-36 -37 213
-214 209
-214 -212
-209 212 214
-215 -209
-215 212
209 -212 215
-216 -214
-216 -215
214 215 216
-217 -209
-217 -212
209 212 217
-218 -213
-218 -217
213 217 218
-219 -37
-219 38
37 -38 219
-220 37
-220 -38
-37 38 220
-221 -219
-221 -220
219 220 221
-222 37
-222 38
-37 -38 222
-223 218
-223 -221
-218 221 223
-224 -218
-224 221
218 -221 224
-225 -223
-225 -224
223 224 225
-226 -218
-226 -221
218 221 226
-227 -222
-227 -226
222 226 227
-228 -38
-228 39
38 -39 228
-229 38
-229 -39
-38 39 229
-230 -228
-230 -229
228 229 230
-231 38
-231 39
-38 -39 231
-232 227
-232 -230
-227 230 232
-233 -227
-233 230
227 -230 233
-234 -232
-234 -233
232 233 234
-235 -227
-235 -230
227 230 235
-236 -231
-236 -235
231 235 236
-237 -39
-237 40
39 -40 237
-238 39
-238 -40
-39 40 238
-239 -237
-239 -238
237 238 239
-240 39
-240 40
-39 -40 240
-241 236
-241 -239
-236 239 241
-242 -236
-242 239
236 -239 242
-243 -241
-243 -242
241 242 243
-244 -236
-244 -239
236 239 244
-245 -240
-245 -244
240 244 245
-246 -40
-246 41
40 -41 246
-247 40
-247 -41
-40 41 247
-248 -246
-248 -247
246 247 248
-249 40
-249 41
-40 -41 249
-250 245
-250 -248
-245 248 250
-251 -245
-251 248
245 -248 251
-252 -250
-252 -251
250 251 252
-253 -245
-253 -248
245 248 253
-254 -249
-254 -253
249 253 254
-255 -41
-255 42
41 -42 255
-256 41
-256 -42
-41 42 256
-257 -255
-257 -256
255 256 257
-258 41
-258 42
-41 -42 258
-259 254
-259 -257
-254 257 259
-260 -254
-260 257
254 -257 260
-261 -259
-261 -260
259 260 261
-262 -254
-262 -257
254 257 262
-263 -258
-263 -262
258 262 263
-264 -42
-264 43
42 -43 264
-265 42
-265 -43
-42 43 265
-266 -264
-266 -265
264 265 266
-267 42
-267 43
-42 -43 267
-268 263
-268 -266
-263 266 268
-269 -263
-269 266
263 -266 269
-270 -268
-270 -269
268 269 270
-271 -263
-271 -266
263 266 271
-272 -267
-272 -271
267 271 272
-273 -43
-273 44
43 -44 273
-274 43
-274 -44
-43 44 274
-275 -273
-275 -274
273 274 275
-276 43
-276 44
-43 -44 276
-277 272
-277 -275
-272 275 277
-278 -272
-278 275
272 -275 278
-279 -277
-279 -278
277 278 279
-280 -272
-280 -275
272 275 280
-281 -276
-281 -280
276 280 281
-282 -44
-282 45
44 -45 282
-283 44
-283 -45
-44 45 283
-284 -282
-284 -283
282 283 284
-285 44
-285 45
-44 -45 285
-286 281
-286 -284
-281 284 286
-287 -281
-287 284
281 -284 287
-288 -286
-288 -287
286 287 288
-289 -281
-289 -284
281 284 289
-290 -285
-290 -289
285 289 290
-291 -45
-291 46
45 -46 291
-292 45
-292 -46
-45 46 292
-293 -291
-293 -292
291 292 293
-294 45
-294 46
-45 -46 294
-295 290
-295 -293
-290 293 295
-296 -290
-296 293
290 -293 296
-297 -295
-297 -296
295 296 297
-298 -290
-298 -293
290 293 298
-299 -294
-299 -298
294 298 299
-300 -46
-300 47
46 -47 300
-301 46
-301 -47
-46 47 301
-302 -300
-302 -301
300 301 302
-303 46
-303 47
-46 -47 303
-304 299
-304 -302
-299 302 304
-305 -299
-305 302
299 -302 305
-306 -304
-306 -305
304 305 306
-307 -299
-307 -302
299 302 307
-308 -303
-308 -307
303 307 308
-309 -47
-309 48
47 -48 309
-310 47
-310 -48
-47 48 310
-311 -309
-311 -310
309 310 311
-312 47
-312 48
-47 -48 312
-313 308
-313 -311
-308 311 313
-314 -308
-314 311
308 -311 314
-315 -313
-315 -314
313 314 315
-316 -308
-316 -311
308 311 316
-317 -312
-317 -316
312 316 317
-318 -48
-318 49
48 -49 318
-319 48
-319 -49
-48 49 319
-320 -318
-320 -319
318 319 320
-321 48
-321 49
-48 -49 321
-322 317
-322 -320
-317 320 322
-323 -317
-323 320
317 -320 323
-324 -322
-324 -323
322 323 324
-325 -317
-325 -320
317 320 325
-326 -321
-326 -325
321 325 326
-327 -49
-327 50
49 -50 327
-328 49
-328 -50
-49 50 328
-329 -327
-329 -328
327 328 329
-330 49
-330 50
-49 -50 330
-331 326
-331 -329
-326 329 331
-332 -326
-332 329
326 -329 332
-333 -331
-333 -332
331 332 333
-334 -326
-334 -329
326 329 334
-335 -330
-335 -334
330 334 335
-336 -50
-336 51
50 -51 336
-337 50
-337 -51
-50 51 337
-338 -336
-338 -337
336 337 338
-339 50
-339 51
-50 -51 339
-340 335
-340 -338
-335 338 340
-341 -335
-341 338
335 -338 341
-342 -340
-342 -341
340 341 342
-343 -335
-343 -338
335 338 343
-344 -339
-344 -343
339 343 344
-345 -51
-345 52
51 -52 345
-346 51
-346 -52
-51 52 346
-347 -345
-347 -346
345 346 347
-348 51
-348 52
-51 -52 348
-349 344
-349 -347
-344 347 349
-350 -344
-350 347
344 -347 350
-351 -349
-351 -350
349 350 351
-352 -344
-352 -347
344 347 352
-353 -348
-353 -352
348 352 353
-354 -52
-354 53
52 -53 354
-355 52
-355 -53
-52 53 355
-356 -354
-356 -355
354 355 356
-357 52
-357 53
-52 -53 357
-358 353
-358 -356
-353 356 358
-359 -353
-359 356
353 -356 359
-360 -358
-360 -359
358 359 360
-361 -353
-361 -356
353 356 361
-362 -357
-362 -361
357 361 362
-363 -53
-363 54
53 -54 363
-364 53
-364 -54
-53 54 364
-365 -363
-365 -364
363 364 365
-366 53
-366 54
-53 -54 366
-367 362
-367 -365
-362 365 367
-368 -362
-368 365
362 -365 368
-369 -367
-369 -368
367 368 369
-370 -362
-370 -365
362 365 370
-371 -366
-371 -370
366 370 371
-372 -54
-372 55
54 -55 372
-373 54
-373 -55
-54 55 373
-374 -372
-374 -373
372 373 374
-375 54
-375 55
-54 -55 375
-376 371
-376 -374
-371 374 376
-377 -371
-377 374
371 -374 377
-378 -376
-378 -377
376 377 378
-379 -371
-379 -374
371 374 379
-380 -375
-380 -379
375 379 380
-381 -55
-381 56
55 -56 381
-382 55
-382 -56
-55 56 382
-383 -381
-383 -382
381 382 383
-384 55
-384 56
-55 -56 384
-385 380
-385 -383
-380 383 385
-386 -380
-386 383
380 -383 386
-387 -385
-387 -386
385 386 387
-388 -380
-388 -383
380 383 388
-389 -384
-389 -388
384 388 389
-390 -56
-390 57
56 -57 390
-391 56
-391 -57
-56 57 391
-392 -390
-392 -391
390 391 392
-393 56
-393 57
-56 -57 393
-394 389
-394 -392
-389 392 394
-395 -389
-395 392
389 -392 395
-396 -394
-396 -395
394 395 396
-397 -389
-397 -392
389 392 397
-398 -393
-398 -397
393 397 398
-399 -57
-399 58
57 -58 399
-400 57
-400 -58
-57 58 400
-401 -399
-401 -400
399 400 401
-402 57
-402 58
-57 -58 402
-403 398
-403 -401
-398 401 403
-404 -398
-404 401
398 -401 404
-405 -403
-405 -404
403 404 405
-406 -398
-406 -401
398 401 406
-407 -402
-407 -406
402 406 407
-408 23
-408 -99
-23 99 408
-409 -23
-409 25
23 -25 409
-410 -408
-410 -409
408 409 410
-411 23
-411 -108
-23 108 411
-412 -23
-412 26
23 -26 412
-413 -411
-413 -412
411 412 413
-414 23
-414 -117
-23 117 414
-415 -23
-415 27
23 -27 415
-416 -414
-416 -415
414 415 416
-417 23
-417 -126
-23 126 417
-418 -23
-418 28
23 -28 418
-419 -417
-419 -418
417 418 419
-420 23
-420 -135
-23 135 420
-421 -23
-421 29
23 -29 421
-422 -420
-422 -421
420 421 422
-423 23
-423 -144
-23 144 423
-424 -23
-424 30
23 -30 424
-425 -423
-425 -424
423 424 425
-426 23
-426 -153
-23 153 426
-427 -23
-427 31
23 -31 427
-428 -426
-428 -427
426 427 428
-429 23
-429 -162
-23 162 429
-430 -23
-430 32
23 -32 430
-431 -429
-431 -430
429 430 431
-432 23
-432 -171
-23 171 432
-433 -23
-433 33
23 -33 433
-434 -432
-434 -433
432 433 434
-435 23
-435 -180
-23 180 435
-436 -23
-436 34
23 -34 436
-437 -435
-437 -436
435 436 437
-438 23
-438 -189
-23 189 438
-439 -23
-439 35
23 -35 439
-440 -438
-440 -439
438 439 440
-441 23
-441 -198
-23 198 441
-442 -23
-442 36
23 -36 442
-443 -441
-443 -442
441 442 443
-444 23
-444 -207
-23 207 444
-445 -23
-445 37
23 -37 445
-446 -444
-446 -445
444 445 446
-447 23
-447 -216
-23 216 447
-448 -23
-448 38
23 -38 448
-449 -447
-449 -448
447 448 449
-450 23
-450 -225
-23 225 450
-451 -23
-451 39
23 -39 451
-452 -450
-452 -451
450 451 452
-453 23
-453 -234
-23 234 453
-454 -23
-454 40
23 -40 454
-455 -453
-455 -454
453 454 455
-456 23
-456 -243
-23 243 456
-457 -23
-457 41
23 -41 457
-458 -456
-458 -457
456 457 458
-459 23
-459 -252
-23 252 459
-460 -23
-460 42
23 -42 460
-461 -459
-461 -460
459 460 461
-462 23
-462 -261
-23 261 462
-463 -23
-463 43
23 -43 463
-464 -462
-464 -463
462 463 464
-465 23
-465 -270
-23 270 465
-466 -23
-466 44
23 -44 466
-467 -465
-467 -466
465 466 467
-468 23
-468 -279
-23 279 468
-469 -23
-469 45
23 -45 469
-470 -468
-470 -469
468 469 470
-471 23
-471 -288
-23 288 471
-472 -23
-472 46
23 -46 472
-473 -471
-473 -472
471 472 473
-474 23
-474 -297
-23 297 474
-475 -23
-475 47
23 -47 475
-476 -474
-476 -475
474 475 476
-477 23
-477 -306
-23 306 477
-478 -23
-478 48
23 -48 478
-479 -477
-479 -478
477 478 479
-480 23
-480 -315
-23 315 480
-481 -23
-481 49
23 -49 481
-482 -480
-482 -481
480 481 482
-483 23
-483 -324
-23 324 483
-484 -23
-484 50
23 -50 484
-485 -483
-485 -484
483 484 485
-486 23
-486 -333
-23 333 486
-487 -23
-487 51
23 -51 487
-488 -486
-488 -487
486 487 488
-489 23
-489 -342
-23 342 489
-490 -23
-490 52
23 -52 490
-491 -489
-491 -490
489 490 491
-492 23
-492 -351
-23 351 492
-493 -23
-493 53
23 -53 493
-494 -492
-494 -493
492 493 494
-495 23
-495 -360
-23 360 495
-496 -23
-496 54
23 -54 496
-497 -495
-497 -496
495 496 497
-498 23
-498 -369
-23 369 498
-499 -23
-499 55
23 -55 499
-500 -498
-500 -499
498 499 500
-501 23
-501 -378
-23 378 501
-502 -23
-502 56
23 -56 502
-503 -501
-503 -502
501 502 503
-504 23
-504 -387
-23 387 504
-505 -23
-505 57
23 -57 505
-506 -504
-506 -505
504 505 506
-507 23
-507 -396
-23 396 507
-508 -23
-508 58
23 -58 508
-509 -507
-509 -508
507 508 509
-510 23
-510 -405
-23 405 510
-511 1
-511 92
-1 -92 511
-512 -92
-512 93
92 -93 512
-513 -511
-513 -512
511 512 513
-514 2
-514 92
-2 -92 514
-515 -92
-515 -410
92 410 515
-516 -514
-516 -515
514 515 516
-517 3
-517 92
-3 -92 517
-518 -92
-518 -413
92 413 518
-519 -517
-519 -518
517 518 519
-520 4
-520 92
-4 -92 520
-521 -92
-521 -416
92 416 521
-522 -520
-522 -521
520 521 522
-523 5
-523 92
-5 -92 523
-524 -92
-524 -419
92 419 524
-525 -523
-525 -524
523 524 525
-526 6
-526 92
-6 -92 526
-527 -92
-527 -422
92 422 527
-528 -526
-528 -527
526 527 528
-529 7
-529 92
-7 -92 529
-530 -92
-530 -425
92 425 530
-531 -529
-531 -530
529 530 531
-532 8
-532 92
-8 -92 532
-533 -92
-533 -428
92 428 533
-534 -532
-534 -533
532 533 534
-535 9
-535 92
-9 -92 535
-536 -92
-536 -431
92 431 536
-537 -535
-537 -536
535 536 537
-538 10
-538 92
-10 -92 538
-539 -92
-539 -434
92 434 539
-540 -538
-540 -539
538 539 540
-541 11
-541 92
-11 -92 541
-542 -92
-542 -437
92 437 542
-543 -541
-543 -542
541 542 543
-544 12
-544 92
-12 -92 544
-545 -92
-545 -440
92 440 545
-546 -544
-546 -545
544 545 546
-547 13
-547 92
-13 -92 547
-548 -92
-548 -443
92 443 548
-549 -547
-549 -548
547 548 549
-550 14
-550 92
-14 -92 550
-551 -92
-551 -446
92 446 551
-552 -550
-552 -551
550 551 552
-553 15
-553 92
-15 -92 553
-554 -92
-554 -449
92 449 554
-555 -553
-555 -554
553 554 555
-556 16
-556 92
-16 -92 556
-557 -92
-557 -452
92 452 557
-558 -556
-558 -557
556 557 558
-559 17
-559 92
-17 -92 559
-560 -92
-560 -455
92 455 560
-561 -559
-561 -560
559 560 561
-562 18
-562 92
-18 -92 562
-563 -92
-563 -458
92 458 563
-564 -562
-564 -563
562 563 564
-565 19
-565 92
-19 -92 565
-566 -92
-566 -461
92 461 566
-567 -565
-567 -566
565 566 567
-568 20
-568 92
-20 -92 568
-569 -92
-569 -464
92 464 569
-570 -568
-570 -569
568 569 570
-571 21
-571 92
-21 -92 571
-572 -92
-572 -467
92 467 572
-573 -571
-573 -572
571 572 573
-574 22
-574 92
-22 -92 574
-575 -92
-575 -470
92 470 575
-576 -574
-576 -575
574 575 576
-577 -92
-577 -473
92 473 577
-578 -92
-578 -476
92 476 578
-579 -92
-579 -479
92 479 579
-580 -92
-580 -482
92 482 580
-581 -92
-581 -485
92 485 581
-582 -92
-582 -488
92 488 582
-583 -92
-583 -491
92 491 583
-584 -92
-584 -494
92 494 584
-585 -92
-585 -497
92 497 585
-586 -92
-586 -500
92 500 586
-587 -92
-587 -503
92 503 587
-588 -92
-588 -506
92 506 588
-589 -92
-589 -509
92 509 589
-590 -92
-590 510
92 -510 590
-591 -58
-591 407
58 -407 591
-592 23
-592 -591
-23 591 592
592
